\ LP format - for model browsing. Use MPS format to capture full model detail.
Maximize
obj:   x[2] + x[1] + x[3] + x[4] + x[5] + x[6] + x[7] + x[8] + x[9] + x[10]
   + x[11] + x[12] + x[13] + x[14] + x[15] + x[16] + x[17] + x[18] + x[19]
   + x[20] + x[21] + x[22] + x[23] + x[24] + x[25] + x[26] + x[27] + x[28]
   + x[29] + x[30] + x[31] + x[32] + x[33] + x[34] + x[35] + x[36] + x[37]
   + x[38] + x[39] + x[40] + x[41] + x[42] + x[43] + x[44] + x[45] + x[46]
   + x[47] + x[48] + x[49] + x[50] + x[51] + x[52] + x[53] + x[54] + x[55]
   + x[56] + x[57] + x[58] + x[59] + x[60] + x[61] + x[62] + x[63] + x[64]
   + x[65] + x[66] + x[67] + x[68] + x[69] + x[70] + x[71] + x[72] + x[73]
   + x[74] + x[75] + x[76] + x[77] + x[78] + x[79] + x[80] + x[81] + x[82]
   + x[83] + x[84] + x[85] + x[86] + x[87] + x[88] + x[89] + x[90] + x[91]
   + x[92] + x[93] + x[94] + x[95] + x[96] + x[97] + x[98] + x[99] + x[100]
   + x[101] + x[102] + x[103] + x[104] + x[105] + x[106] + x[107] + x[108]
   + x[109] + x[110] + x[111] + x[112] + x[113] + x[114] + x[115] + x[116]
   + x[117] + x[118] + x[119] + x[120] + x[121] + x[122] + x[123] + x[124]
   + x[125]
Subject To
 clq1: x[8] + x[21] + x[24] + x[26] + x[33] + x[45] + x[48] + x[54]
   + x[114] <= 1
 clq2: x[1] + x[15] + x[18] + x[59] + x[93] + x[100] + x[103] + x[106]
   <= 1
 clq3: x[4] + x[10] + x[17] + x[30] + x[58] + x[79] + x[85] <= 1
 clq4: x[2] + x[6] + x[23] + x[28] + x[54] + x[56] + x[123] <= 1
 clq5: x[1] + x[3] + x[40] + x[83] + x[84] + x[91] <= 1
 clq6: x[24] + x[38] + x[51] + x[66] + x[70] + x[102] + x[113] <= 1
 clq7: x[17] + x[26] + x[34] + x[36] + x[47] + x[57] <= 1
 clq8: x[19] + x[33] + x[65] + x[66] + x[98] + x[108] <= 1
 clq9: x[18] + x[25] + x[35] + x[46] + x[60] + x[79] + x[125] <= 1
 clq10: x[13] + x[24] + x[78] + x[98] + x[100] + x[110] + x[123] <= 1
 clq11: x[44] + x[51] + x[80] + x[91] + x[93] + x[115] + x[122] <= 1
 clq12: x[5] + x[12] + x[30] + x[65] + x[87] + x[104] + x[112] <= 1
 clq13: x[3] + x[28] + x[57] + x[94] + x[101] + x[106] + x[121] <= 1
 clq14: x[2] + x[7] + x[26] + x[40] + x[58] + x[68] + x[78] <= 1
 clq15: x[10] + x[16] + x[48] + x[84] + x[118] + x[123] <= 1
 clq16: x[6] + x[47] + x[49] + x[59] + x[61] + x[82] + x[89] <= 1
 clq17: x[11] + x[73] + x[75] + x[103] + x[114] + x[122] <= 1
 clq18: x[9] + x[17] + x[22] + x[56] + x[64] + x[100] + x[111] <= 1
 clq19: x[33] + x[37] + x[85] + x[99] + x[103] + x[109] <= 1
 clq20: x[1] + x[28] + x[36] + x[58] + x[67] + x[105] <= 1
 clq21: x[2] + x[14] + x[50] + x[55] + x[74] + x[100] <= 1
 clq22: x[18] + x[19] + x[23] + x[27] + x[72] + x[116] <= 1
 clq23: x[34] + x[46] + x[52] + x[73] + x[95] + x[115] + x[120] <= 1
 clq24: x[49] + x[54] + x[57] + x[62] + x[83] + x[92] + x[96] + x[124]
   <= 1
 clq25: x[3] + x[4] + x[6] + x[60] + x[81] <= 1
 clq26: x[11] + x[13] + x[20] + x[87] + x[108] <= 1
 clq27: x[21] + x[29] + x[38] + x[40] + x[62] + x[118] <= 1
 clq28: x[12] + x[43] + x[50] + x[53] + x[79] + x[109] <= 1
 clq29: x[31] + x[43] + x[84] + x[102] + x[104] + x[106] <= 1
 clq30: x[16] + x[80] + x[85] + x[86] + x[101] + x[112] <= 1
 clq31: x[10] + x[44] + x[45] + x[71] + x[72] + x[94] <= 1
 clq32: x[48] + x[63] + x[90] + x[99] + x[125] <= 1
 clq33: x[4] + x[32] + x[55] + x[66] + x[114] + x[121] <= 1
 clq34: x[25] + x[42] + x[52] + x[81] + x[110] <= 1
 clq35: x[9] + x[35] + x[38] + x[77] + x[78] + x[84] <= 1
 clq36: x[1] + x[13] + x[22] + x[29] + x[33] + x[47] <= 1
 clq37: x[7] + x[46] + x[51] + x[59] + x[65] <= 1
 clq38: x[24] + x[68] + x[69] + x[93] + x[109] <= 1
 clq39: x[3] + x[14] + x[37] + x[43] + x[65] + x[78] + x[119] <= 1
 clq40: x[12] + x[18] + x[26] + x[64] + x[85] + x[105] <= 1
 clq41: x[19] + x[56] + x[61] + x[87] + x[125] <= 1
 clq42: x[17] + x[20] + x[23] + x[67] + x[82] <= 1
 clq43: x[36] + x[37] + x[48] + x[68] + x[74] + x[108] <= 1
 clq44: x[21] + x[60] + x[91] + x[104] + x[123] <= 1
 clq45: x[35] + x[39] + x[44] + x[58] + x[69] + x[98] + x[104] <= 1
 clq46: x[41] + x[93] + x[113] + x[118] + x[120] <= 1
 clq47: x[67] + x[88] + x[95] + x[102] + x[109] + x[122] <= 1
 clq48: x[15] + x[29] + x[63] + x[70] + x[92] + x[94] <= 1
 clq49: x[26] + x[30] + x[52] + x[53] + x[97] + x[99] <= 1
 clq50: x[79] + x[103] + x[107] + x[110] <= 1
 clq51: x[40] + x[41] + x[53] + x[86] + x[111] + x[115] + x[116] <= 1
 clq52: x[5] + x[11] + x[31] + x[54] + x[59] + x[79] <= 1
 clq53: x[16] + x[24] + x[34] + x[42] + x[76] <= 1
 clq54: x[6] + x[66] + x[90] + x[91] + x[96] + x[111] <= 1
 clq55: x[1] + x[27] + x[80] + x[114] <= 1
 clq56: x[2] + x[10] + x[27] + x[33] + x[89] <= 1
 clq57: x[7] + x[19] + x[31] + x[45] + x[81] + x[83] <= 1
 clq58: x[8] + x[56] + x[75] + x[84] + x[117] <= 1
 clq59: x[4] + x[23] + x[25] + x[61] + x[73] <= 1
 clq60: x[11] + x[28] + x[32] + x[52] + x[71] + x[112] <= 1
 clq61: x[4] + x[47] + x[77] + x[94] + x[104] + x[113] + x[124] <= 1
 clq62: x[9] + x[46] + x[71] + x[82] + x[107] <= 1
 clq63: x[3] + x[8] + x[13] + x[17] + x[50] <= 1
 clq64: x[18] + x[20] + x[51] + x[62] + x[101] + x[114] <= 1
 clq65: x[22] + x[36] + x[55] + x[97] + x[102] + x[110] <= 1
 clq66: x[54] + x[60] + x[80] + x[98] + x[103] <= 1
 clq67: x[57] + x[64] + x[76] + x[119] <= 1
 clq68: x[38] + x[42] + x[49] + x[87] + x[106] <= 1
 clq69: x[1] + x[12] + x[62] + x[108] + x[116] + x[121] + x[123] <= 1
 clq70: x[7] + x[14] + x[39] + x[57] + x[72] + x[120] <= 1
 clq71: x[24] + x[28] + x[72] + x[95] + x[118] + x[125] <= 1
 clq72: x[12] + x[15] + x[21] + x[41] + x[74] + x[122] <= 1
 clq73: x[16] + x[33] + x[51] + x[96] + x[100] + x[119] <= 1
 clq74: x[48] + x[82] + x[88] + x[92] + x[105] <= 1
 clq75: x[27] + x[30] + x[35] + x[45] + x[63] <= 1
 clq76: x[11] + x[25] + x[34] + x[49] + x[85] + x[93] <= 1
 clq77: x[2] + x[32] + x[59] + x[64] + x[75] <= 1
 clq78: x[10] + x[15] + x[66] + x[117] + x[125] <= 1
 clq79: x[23] + x[68] + x[99] + x[105] + x[107] <= 1
 clq80: x[40] + x[52] + x[56] + x[90] + x[106] <= 1
 clq81: x[17] + x[61] + x[65] + x[91] + x[117] <= 1
 clq82: x[6] + x[19] + x[53] + x[103] + x[112] + x[120] <= 1
 clq83: x[9] + x[34] + x[50] + x[67] + x[123] <= 1
 clq84: x[20] + x[26] + x[42] + x[44] + x[50] + x[60] <= 1
 clq85: x[58] + x[86] + x[87] + x[95] + x[114] <= 1
 clq86: x[28] + x[47] + x[70] + x[81] + x[98] + x[115] <= 1
 clq87: x[13] + x[18] + x[36] + x[81] + x[88] + x[112] <= 1
 clq88: x[37] + x[46] + x[56] + x[80] + x[110] <= 1
 clq89: x[8] + x[69] + x[83] + x[100] + x[101] <= 1
 clq90: x[14] + x[77] + x[79] + x[89] + x[91] <= 1
 clq91: x[48] + x[97] + x[113] + x[115] <= 1
 clq92: x[63] + x[108] + x[111] + x[124] <= 1
 clq93: x[5] + x[9] + x[16] + x[55] <= 1
 clq94: x[22] + x[23] + x[38] + x[76] <= 1
 clq95: x[45] + x[92] + x[118] + x[122] <= 1
 clq96: x[2] + x[21] + x[31] + x[66] <= 1
 clq97: x[3] + x[10] + x[74] + x[105] + x[110] <= 1
 clq98: x[30] + x[68] + x[73] + x[110] + x[113] <= 1
 clq99: x[13] + x[16] + x[39] + x[54] + x[65] <= 1
 clq100: x[26] + x[59] + x[90] + x[121] + x[122] <= 1
 clq101: x[5] + x[61] + x[84] + x[107] + x[109] <= 1
 clq102: x[42] + x[64] + x[72] + x[82] + x[86] <= 1
 clq103: x[5] + x[17] + x[76] + x[93] + x[102] <= 1
 clq104: x[24] + x[25] + x[29] + x[99] <= 1
 clq105: x[9] + x[32] + x[83] + x[106] + x[119] <= 1
 clq106: x[40] + x[48] + x[71] + x[96] + x[121] <= 1
 clq107: x[33] + x[43] + x[58] + x[124] <= 1
 clq108: x[6] + x[75] + x[92] + x[119] <= 1
 clq109: x[7] + x[35] + x[87] + x[99] + x[121] <= 1
 clq110: x[1] + x[38] + x[60] + x[69] + x[94] <= 1
 clq111: x[15] + x[19] + x[22] + x[37] <= 1
 clq112: x[29] + x[44] + x[52] + x[57] + x[78] <= 1
 clq113: x[46] + x[47] + x[85] + x[123] <= 1
 clq114: x[55] + x[57] + x[70] + x[77] + x[118] <= 1
 clq115: x[49] + x[63] + x[67] + x[79] + x[97] <= 1
 clq116: x[3] + x[80] + x[89] + x[108] <= 1
 clq117: x[4] + x[39] + x[67] + x[101] + x[103] <= 1
 clq118: x[2] + x[98] + x[116] + x[124] <= 1
 clq119: x[14] + x[20] + x[66] + x[118] <= 1
 clq120: x[18] + x[21] + x[22] + x[87] + x[120] <= 1
 clq121: x[23] + x[45] + x[51] <= 1
 clq122: x[27] + x[51] + x[75] + x[79] + x[95] <= 1
 clq123: x[36] + x[56] + x[114] <= 1
 clq124: x[8] + x[73] + x[85] + x[107] + x[125] <= 1
 clq125: x[10] + x[25] + x[31] + x[64] + x[121] <= 1
 clq126: x[24] + x[41] + x[58] + x[82] <= 1
 clq127: x[28] + x[30] + x[74] + x[102] <= 1
 clq128: x[1] + x[46] + x[54] + x[61] <= 1
 clq129: x[23] + x[59] + x[71] + x[88] + x[98] <= 1
 clq130: x[33] + x[68] + x[80] + x[84] <= 1
 clq131: x[19] + x[79] + x[90] + x[93] <= 1
 clq132: x[6] + x[34] + x[44] + x[100] <= 1
 clq133: x[40] + x[89] + x[117] + x[123] <= 1
 clq134: x[17] + x[25] + x[32] + x[43] + x[108] <= 1
 clq135: x[7] + x[36] + x[96] + x[113] <= 1
 clq136: x[55] + x[62] + x[65] + x[73] + x[86] <= 1
 clq137: x[2] + x[11] + x[46] + x[91] + x[105] <= 1
 clq138: x[92] + x[98] + x[109] + x[111] <= 1
 clq139: x[81] + x[106] + x[111] + x[114] + x[125] <= 1
 clq140: x[19] + x[20] + x[100] + x[115] <= 1
 clq141: x[4] + x[24] + x[35] + x[56] + x[116] <= 1
 clq142: x[8] + x[10] + x[14] + x[38] + x[95] <= 1
 clq143: x[1] + x[16] + x[37] + x[45] <= 1
 clq144: x[21] + x[47] + x[53] + x[64] <= 1
 clq145: x[48] + x[50] + x[65] + x[83] + x[107] <= 1
 clq146: x[39] + x[60] + x[63] + x[77] + x[100] <= 1
 clq147: x[27] + x[66] + x[69] + x[78] <= 1
 clq148: x[60] + x[76] + x[97] + x[101] <= 1
 clq149: x[13] + x[94] + x[102] + x[103] <= 1
 clq150: x[8] + x[15] + x[36] + x[104] <= 1
 clq151: x[3] + x[61] + x[112] + x[122] <= 1
 clq152: x[9] + x[12] + x[54] + x[81] + x[90] <= 1
 clq153: x[18] + x[30] + x[77] + x[117] <= 1
 clq154: x[26] + x[41] + x[109] + x[123] <= 1
 clq155: x[8] + x[58] + x[74] + x[80] + x[109] <= 1
 clq156: x[68] + x[75] + x[82] + x[123] + x[124] <= 1
 clq157: x[84] + x[92] + x[93] <= 1
 clq158: x[31] + x[37] + x[100] + x[120] <= 1
 clq159: x[6] + x[29] + x[55] + x[101] <= 1
 clq160: x[33] + x[34] + x[72] + x[110] + x[111] <= 1
 clq161: x[14] + x[40] + x[42] + x[70] <= 1
 clq162: x[22] + x[49] + x[74] + x[103] + x[115] <= 1
 clq163: x[59] + x[69] + x[99] + x[118] <= 1
 clq164: x[43] + x[66] + x[88] + x[116] <= 1
 clq165: x[50] + x[85] + x[89] + x[113] + x[119] <= 1
 clq166: x[23] + x[24] + x[47] + x[96] + x[106] <= 1
 clq167: x[7] + x[12] + x[20] + x[92] <= 1
 clq168: x[15] + x[17] + x[78] + x[105] <= 1
 clq169: x[32] + x[36] + x[53] + x[93] <= 1
 clq170: x[3] + x[41] + x[44] + x[87] <= 1
 clq171: x[45] + x[82] + x[84] + x[112] <= 1
 clq172: x[51] + x[58] + x[108] <= 1
 clq173: x[5] + x[35] + x[71] + x[86] + x[92] + x[103] <= 1
 clq174: x[2] + x[13] + x[35] + x[76] <= 1
 clq175: x[18] + x[48] + x[91] + x[94] <= 1
 clq176: x[11] + x[83] + x[90] + x[104] <= 1
 clq177: x[28] + x[38] + x[114] + x[120] <= 1
 clq178: x[16] + x[27] + x[99] + x[122] <= 1
 clq179: x[21] + x[51] + x[55] + x[61] + x[85] <= 1
 clq180: x[26] + x[62] + x[125] <= 1
 clq181: x[30] + x[88] + x[108] + x[118] <= 1
 clq182: x[42] + x[56] + x[57] + x[99] <= 1
 clq183: x[37] + x[63] + x[102] <= 1
 clq184: x[6] + x[7] + x[10] + x[37] + x[67] <= 1
 clq185: x[19] + x[59] + x[97] + x[117] <= 1
 clq186: x[4] + x[27] + x[29] + x[76] <= 1
 clq187: x[31] + x[38] + x[68] + x[101] <= 1
 clq188: x[40] + x[44] + x[64] + x[101] <= 1
 clq189: x[39] + x[52] + x[114] + x[124] <= 1
 clq190: x[54] + x[69] + x[95] <= 1
 clq191: x[1] + x[17] + x[104] <= 1
 clq192: x[9] + x[25] + x[65] <= 1
 clq193: x[20] + x[34] + x[102] <= 1
 clq194: x[15] + x[26] + x[43] + x[83] <= 1
 clq195: x[32] + x[33] + x[62] + x[78] <= 1
 clq196: x[28] + x[39] + x[45] + x[66] + x[119] <= 1
 clq197: x[46] + x[53] + x[94] + x[108] <= 1
 clq198: x[36] + x[49] + x[72] + x[80] <= 1
 clq199: x[42] + x[47] + x[63] + x[91] <= 1
 clq200: x[34] + x[70] + x[84] + x[87] <= 1
 clq201: x[17] + x[73] + x[112] + x[116] <= 1
 clq202: x[12] + x[13] + x[75] + x[113] <= 1
 clq203: x[11] + x[12] + x[57] + x[89] <= 1
 clq204: x[30] + x[93] + x[96] + x[98] <= 1
 clq205: x[2] + x[60] + x[61] + x[115] <= 1
 clq206: x[23] + x[58] + x[122] + x[125] <= 1
 clq207: x[3] + x[18] + x[54] + x[97] <= 1
 clq208: x[14] + x[48] + x[51] + x[67] <= 1
 clq209: x[16] + x[22] + x[69] + x[91] <= 1
 clq210: x[30] + x[41] + x[95] + x[107] <= 1
 clq211: x[1] + x[56] + x[71] + x[120] <= 1
 clq212: x[31] + x[62] + x[74] + x[77] <= 1
 clq213: x[25] + x[105] + x[106] + x[124] <= 1
 clq214: x[4] + x[46] + x[90] + x[117] <= 1
 clq215: x[9] + x[21] + x[52] + x[88] <= 1
 clq216: x[19] + x[40] + x[73] + x[88] <= 1
 clq217: x[20] + x[68] + x[76] + x[79] <= 1
 clq218: x[29] + x[59] + x[114] <= 1
 clq219: x[50] + x[80] + x[104] + x[116] <= 1
 clq220: x[63] + x[64] + x[65] + x[109] + x[114] <= 1
 clq221: x[33] + x[82] + x[83] + x[102] <= 1
 clq222: x[26] + x[70] + x[86] + x[100] + x[108] <= 1
 clq223: x[6] + x[17] + x[110] + x[114] <= 1
 clq224: x[5] + x[24] + x[44] + x[111] <= 1
 clq225: x[32] + x[72] + x[84] + x[99] <= 1
 clq226: x[43] + x[60] + x[75] <= 1
 clq227: x[49] + x[53] + x[122] <= 1
 clq228: x[78] + x[81] + x[89] <= 1
 clq229: x[4] + x[40] + x[87] + x[93] <= 1
 clq230: x[2] + x[79] + x[94] <= 1
 clq231: x[10] + x[96] + x[102] + x[120] <= 1
 clq232: x[3] + x[69] + x[71] + x[113] <= 1
 clq233: x[7] + x[106] + x[115] <= 1
 clq234: x[17] + x[27] + x[98] + x[118] <= 1
 clq235: x[11] + x[22] + x[41] + x[45] + x[61] <= 1
 clq236: x[13] + x[15] + x[89] <= 1
 clq237: x[14] + x[29] + x[124] <= 1
 clq238: x[16] + x[23] + x[29] + x[31] + x[115] <= 1
 clq239: x[2] + x[18] + x[57] + x[104] <= 1
 clq240: x[38] + x[54] + x[55] + x[125] <= 1
 clq241: x[14] + x[47] + x[97] <= 1
 clq242: x[48] + x[56] + x[58] + x[66] <= 1
 clq243: x[59] + x[83] + x[112] <= 1
 clq244: x[42] + x[75] + x[77] <= 1
 clq245: x[82] + x[95] + x[121] <= 1
 clq246: x[1] + x[49] + x[107] <= 1
 clq247: x[101] + x[117] + x[119] <= 1
 clq248: x[44] + x[53] + x[123] <= 1
 clq249: x[9] + x[13] + x[74] + x[85] <= 1
 clq250: x[19] + x[34] + x[35] <= 1
 clq251: x[20] + x[25] + x[84] + x[95] <= 1
 clq252: x[21] + x[46] + x[78] + x[113] <= 1
 clq253: x[28] + x[50] + x[117] <= 1
 clq254: x[36] + x[42] + x[122] <= 1
 clq255: x[43] + x[56] + x[68] + x[112] <= 1
 clq256: x[6] + x[52] + x[72] <= 1
 clq257: x[5] + x[67] + x[98] + x[106] <= 1
 clq258: x[59] + x[80] + x[81] + x[94] <= 1
 clq259: x[28] + x[33] + x[88] + x[90] <= 1
 clq260: x[22] + x[24] + x[63] + x[105] <= 1
 clq261: x[7] + x[21] + x[93] + x[110] <= 1
 clq262: x[5] + x[15] + x[47] + x[51] <= 1
 clq263: x[32] + x[37] + x[123] <= 1
 clq264: x[56] + x[60] + x[65] + x[96] <= 1
 clq265: x[62] + x[87] + x[110] <= 1
 clq266: x[3] + x[64] + x[107] <= 1
 clq267: x[50] + x[73] + x[91] <= 1
 clq268: x[12] + x[76] + x[77] + x[103] <= 1
 clq269: x[86] + x[94] + x[97] <= 1
 clq270: x[18] + x[92] + x[121] <= 1
 clq271: x[34] + x[90] + x[116] + x[119] <= 1
 clq272: x[8] + x[86] + x[118] <= 1
 clq273: x[1] + x[10] + x[26] + x[101] <= 1
 clq274: x[19] + x[38] + x[52] + x[64] <= 1
 clq275: x[25] + x[27] + x[39] <= 1
 clq276: x[30] + x[36] + x[75] <= 1
 clq277: x[48] + x[49] + x[102] <= 1
 clq278: x[53] + x[58] + x[71] + x[89] <= 1
 clq279: x[54] + x[70] + x[105] + x[120] <= 1
 clq280: x[57] + x[73] + x[105] + x[109] <= 1
 clq281: x[3] + x[36] + x[66] + x[82] <= 1
 clq282: x[7] + x[79] + x[122] <= 1
 clq283: x[20] + x[30] + x[124] <= 1
 clq284: x[4] + x[41] + x[125] <= 1
 clq285: x[1] + x[6] + x[11] + x[99] <= 1
 clq286: x[9] + x[23] + x[87] <= 1
 clq287: x[14] + x[35] + x[112] <= 1
 clq288: x[16] + x[57] + x[81] <= 1
 clq289: x[18] + x[32] + x[67] + x[107] <= 1
 clq290: x[9] + x[11] + x[37] + x[40] <= 1
 clq291: x[43] + x[44] + x[121] <= 1
 clq292: x[45] + x[62] + x[117] <= 1
 clq293: x[35] + x[55] + x[72] <= 1
 clq294: x[10] + x[68] + x[88] + x[91] <= 1
 clq295: x[69] + x[97] + x[106] + x[123] <= 1
 clq296: x[60] + x[78] + x[85] <= 1
 clq297: x[27] + x[92] + x[104] <= 1
 clq298: x[2] + x[39] + x[73] + x[111] <= 1
 clq299: x[33] + x[46] + x[118] <= 1
 clq300: x[8] + x[16] + x[59] <= 1
 clq301: x[13] + x[48] + x[70] <= 1
 clq302: x[15] + x[31] + x[65] <= 1
 clq303: x[24] + x[49] + x[50] <= 1
 clq304: x[6] + x[42] + x[51] + x[84] <= 1
 clq305: x[47] + x[79] + x[120] <= 1
 clq306: x[26] + x[61] + x[76] + x[95] <= 1
 clq307: x[74] + x[83] + x[95] <= 1
 clq308: x[14] + x[71] + x[75] <= 1
 clq309: x[77] + x[93] <= 1
 clq310: x[45] + x[80] + x[96] <= 1
 clq311: x[92] + x[100] + x[113] <= 1
 clq312: x[108] + x[119] + x[125] <= 1
 clq313: x[17] + x[109] + x[115] + x[124] <= 1
 clq314: x[20] + x[116] <= 1
 clq315: x[29] + x[60] + x[122] <= 1
 clq316: x[4] + x[12] + x[34] <= 1
 clq317: x[19] + x[41] + x[121] <= 1
 clq318: x[23] + x[43] + x[110] <= 1
 clq319: x[7] + x[25] + x[44] <= 1
 clq320: x[26] + x[28] + x[55] + x[87] <= 1
 clq321: x[7] + x[32] + x[38] + x[63] <= 1
 clq322: x[52] + x[77] + x[85] <= 1
 clq323: x[53] + x[66] + x[74] <= 1
 clq324: x[54] + x[72] + x[89] <= 1
 clq325: x[58] + x[97] + x[103] <= 1
 clq326: x[62] + x[82] + x[90] <= 1
 clq327: x[78] + x[93] + x[125] <= 1
 clq328: x[71] + x[81] + x[100] + x[102] <= 1
 clq329: x[68] + x[86] + x[104] <= 1
 clq330: x[68] + x[94] + x[116] <= 1
 clq331: x[15] + x[52] + x[98] <= 1
 clq332: x[13] + x[60] + x[99] + x[117] <= 1
 clq333: x[25] + x[37] + x[118] <= 1
 clq334: x[8] + x[64] + x[122] <= 1
 clq335: x[20] + x[24] + x[43] <= 1
 clq336: x[21] + x[27] + x[83] <= 1
 clq337: x[22] + x[50] + x[57] <= 1
 clq338: x[23] + x[30] + x[46] + x[111] <= 1
 clq339: x[31] + x[46] + x[48] <= 1
 clq340: x[33] + x[40] + x[79] + x[92] <= 1
 clq341: x[47] + x[67] + x[73] <= 1
 clq342: x[49] + x[77] + x[108] + x[112] <= 1
 clq343: x[34] + x[59] + x[91] <= 1
 clq344: x[19] + x[69] + x[80] <= 1
 clq345: x[17] + x[39] + x[75] + x[106] <= 1
 clq346: x[58] + x[96] + x[107] <= 1
 clq347: x[52] + x[101] + x[113] + x[125] <= 1
 clq348: x[18] + x[119] <= 1
 clq349: x[14] + x[64] + x[93] + x[123] <= 1
 clq350: x[2] + x[4] + x[118] <= 1
 clq351: x[3] + x[5] + x[120] <= 1
 clq352: x[16] + x[36] + x[73] <= 1
 clq353: x[29] + x[66] <= 1
 clq354: x[35] + x[41] + x[100] <= 1
 clq355: x[42] + x[53] <= 1
 clq356: x[44] + x[61] + x[110] <= 1
 clq357: x[45] + x[70] + x[78] <= 1
 clq358: x[51] + x[77] + x[82] + x[109] <= 1
 clq359: x[54] + x[76] + x[108] <= 1
 clq360: x[22] + x[34] + x[62] <= 1
 clq361: x[65] + x[122] + x[124] <= 1
 clq362: x[72] + x[103] + x[104] <= 1
 clq363: x[84] + x[85] + x[98] <= 1
 clq364: x[9] + x[75] + x[86] <= 1
 clq365: x[89] + x[106] + x[116] <= 1
 clq366: x[31] + x[50] + x[94] <= 1
 clq367: x[15] + x[57] + x[114] <= 1
 clq368: x[27] + x[107] + x[115] <= 1
 clq369: x[10] + x[29] + x[119] <= 1
 clq370: x[20] + x[117] + x[121] <= 1
 clq371: x[1] + x[97] <= 1
 clq372: x[8] + x[12] + x[72] <= 1
 clq373: x[18] + x[45] + x[73] + x[74] <= 1
 clq374: x[21] + x[37] + x[58] + x[116] <= 1
 clq375: x[24] + x[67] + x[74] <= 1
 clq376: x[28] + x[65] + x[69] <= 1
 clq377: x[38] + x[43] + x[91] <= 1
 clq378: x[42] + x[66] + x[97] <= 1
 clq379: x[47] + x[69] + x[87] + x[102] <= 1
 clq380: x[5] + x[48] + x[78] <= 1
 clq381: x[53] + x[56] + x[81] <= 1
 clq382: x[55] + x[80] + x[111] <= 1
 clq383: x[3] + x[45] + x[59] <= 1
 clq384: x[4] + x[63] + x[115] <= 1
 clq385: x[42] + x[83] + x[98] <= 1
 clq386: x[70] + x[90] + x[114] <= 1
 clq387: x[1] + x[81] + x[96] <= 1
 clq388: x[2] + x[44] + x[113] <= 1
 clq389: x[6] + x[36] + x[121] <= 1
 clq390: x[11] + x[102] + x[123] <= 1
 clq391: x[13] + x[41] + x[59] <= 1
 clq392: x[16] + x[25] + x[89] <= 1
 clq393: x[19] + x[82] + x[101] <= 1
 clq394: x[16] + x[30] + x[38] + x[105] <= 1
 clq395: x[32] + x[35] + x[113] <= 1
 clq396: x[3] + x[33] + x[49] <= 1
 clq397: x[40] + x[76] <= 1
 clq398: x[50] + x[54] + x[99] <= 1
 clq399: x[61] + x[68] + x[119] <= 1
 clq400: x[17] + x[62] + x[120] <= 1
 clq401: x[64] + x[79] + x[112] <= 1
 clq402: x[14] + x[84] + x[121] <= 1
 clq403: x[22] + x[85] + x[95] <= 1
 clq404: x[18] + x[39] + x[86] + x[99] <= 1
 clq405: x[26] + x[69] + x[88] + x[103] <= 1
 clq406: x[55] + x[90] + x[94] <= 1
 clq407: x[56] + x[104] + x[107] + x[118] <= 1
 clq408: x[75] + x[91] + x[110] <= 1
 clq409: x[40] + x[60] + x[124] <= 1
 clq410: x[8] + x[18] + x[43] + x[76] <= 1
 clq411: x[9] + x[66] + x[72] <= 1
 clq412: x[10] + x[28] + x[92] <= 1
 clq413: x[12] + x[32] + x[48] <= 1
 clq414: x[2] + x[15] + x[67] <= 1
 clq415: x[20] + x[75] + x[83] <= 1
 clq416: x[23] + x[35] + x[80] <= 1
 clq417: x[24] + x[91] + x[101] <= 1
 clq418: x[27] + x[87] + x[96] <= 1
 clq419: x[29] + x[93] + x[95] + x[116] <= 1
 clq420: x[31] + x[41] + x[63] <= 1
 clq421: x[9] + x[51] + x[73] + x[117] <= 1
 clq422: x[34] + x[53] <= 1
 clq423: x[1] + x[98] + x[122] <= 1
 clq424: x[4] + x[21] + x[71] <= 1
 clq425: x[5] + x[91] + x[100] <= 1
 clq426: x[6] + x[65] + x[106] <= 1
 clq427: x[7] + x[47] + x[52] <= 1
 clq428: x[11] + x[30] + x[62] <= 1
 clq429: x[13] + x[64] + x[84] + x[120] <= 1
 clq430: x[19] + x[119] + x[124] <= 1
 clq431: x[25] + x[53] + x[119] <= 1
 clq432: x[33] + x[61] + x[97] <= 1
 clq433: x[36] + x[44] + x[107] <= 1
 clq434: x[37] + x[54] + x[82] <= 1
 clq435: x[46] + x[58] + x[112] <= 1
 clq436: x[30] + x[49] + x[71] + x[109] <= 1
 clq437: x[48] + x[57] + x[111] <= 1
 clq438: x[70] + x[85] <= 1
 clq439: x[78] + x[106] + x[122] <= 1
 clq440: x[28] + x[42] + x[79] <= 1
 clq441: x[76] + x[89] + x[125] <= 1
 clq442: x[94] + x[123] <= 1
 clq443: x[59] + x[108] + x[110] <= 1
 clq444: x[2] + x[34] + x[114] <= 1
 clq445: x[66] + x[85] + x[115] <= 1
 clq446: x[10] + x[103] + x[108] <= 1
 clq447: x[12] + x[24] + x[119] <= 1
 clq448: x[14] + x[104] + x[105] <= 1
 clq449: x[15] + x[81] + x[109] <= 1
 clq450: x[20] + x[31] + x[70] <= 1
 clq451: x[22] + x[90] + x[108] <= 1
 clq452: x[11] + x[23] + x[55] <= 1
 clq453: x[27] + x[40] + x[59] <= 1
 clq454: x[50] + x[114] + x[118] <= 1
 clq455: x[63] + x[78] + x[80] <= 1
 clq456: x[67] + x[92] <= 1
 clq457: x[32] + x[68] + x[98] <= 1
 clq458: x[35] + x[83] + x[85] <= 1
 clq459: x[15] + x[33] + x[86] <= 1
 clq460: x[88] + x[94] <= 1
 clq461: x[4] + x[96] <= 1
 clq462: x[57] + x[65] + x[123] <= 1
 clq463: x[2] + x[1] + x[5] <= 1
 clq464: x[3] + x[7] + x[111] <= 1
 clq465: x[6] + x[26] + x[38] <= 1
 clq466: x[5] + x[8] + x[77] <= 1
 clq467: x[16] + x[19] + x[60] + x[102] <= 1
 clq468: x[21] + x[100] <= 1
 clq469: x[25] + x[40] + x[67] <= 1
 clq470: x[29] + x[46] + x[74] <= 1
 clq471: x[36] + x[101] <= 1
 clq472: x[37] + x[97] + x[121] <= 1
 clq473: x[39] + x[51] + x[110] <= 1
 clq474: x[41] + x[57] + x[112] <= 1
 clq475: x[38] + x[44] + x[92] <= 1
 clq476: x[27] + x[47] + x[54] <= 1
 clq477: x[53] + x[88] + x[124] <= 1
 clq478: x[56] + x[62] + x[93] <= 1
 clq479: x[31] + x[61] + x[113] <= 1
 clq480: x[72] + x[117] + x[122] <= 1
 clq481: x[22] + x[79] + x[99] <= 1
 clq482: x[87] + x[94] <= 1
 clq483: x[66] + x[89] + x[104] <= 1
 clq484: x[34] + x[96] + x[108] <= 1
 clq485: x[33] + x[36] + x[115] <= 1
 clq486: x[42] + x[67] + x[125] <= 1
 clq487: x[4] + x[45] + x[68] <= 1
 clq488: x[10] + x[21] + x[81] <= 1
 clq489: x[12] + x[17] + x[97] <= 1
 clq490: x[13] + x[43] + x[107] <= 1
 clq491: x[14] + x[24] <= 1
 clq492: x[20] + x[27] + x[52] <= 1
 clq493: x[23] + x[44] + x[70] <= 1
 clq494: x[28] + x[44] + x[83] <= 1
 clq495: x[6] + x[48] + x[95] <= 1
 clq496: x[49] + x[123] <= 1
 clq497: x[50] + x[51] + x[63] <= 1
 clq498: x[15] + x[55] + x[82] <= 1
 clq499: x[58] + x[100] <= 1
 clq500: x[80] + x[87] + x[100] + x[118] <= 1
 clq501: x[46] + x[84] + x[100] <= 1
 clq502: x[7] + x[86] <= 1
 clq503: x[90] + x[120] + x[124] <= 1
 clq504: x[14] + x[94] <= 1
 clq505: x[53] + x[101] + x[105] <= 1
 clq506: x[103] + x[123] <= 1
 clq507: x[1] + x[117] <= 1
 clq508: x[3] + x[24] + x[79] <= 1
 clq509: x[8] + x[35] + x[96] <= 1
 clq510: x[9] + x[47] + x[118] <= 1
 clq511: x[11] + x[113] <= 1
 clq512: x[25] + x[103] <= 1
 clq513: x[29] + x[79] + x[88] <= 1
 clq514: x[32] + x[110] + x[115] <= 1
 clq515: x[37] + x[72] + x[75] <= 1
 clq516: x[39] + x[78] <= 1
 clq517: x[41] + x[98] <= 1
 clq518: x[49] + x[116] <= 1
 clq519: x[54] + x[74] <= 1
 clq520: x[56] + x[76] <= 1
 clq521: x[58] + x[121] <= 1
 clq522: x[14] + x[61] + x[114] <= 1
 clq523: x[39] + x[62] <= 1
 clq524: x[52] + x[65] + x[111] <= 1
 clq525: x[66] + x[71] + x[77] <= 1
 clq526: x[34] + x[86] + x[125] <= 1
 clq527: x[89] + x[112] <= 1
 clq528: x[1] + x[4] + x[92] <= 1
 clq529: x[70] + x[93] <= 1
 clq530: x[7] + x[94] + x[95] <= 1
 clq531: x[10] + x[36] + x[50] <= 1
 clq532: x[11] + x[68] <= 1
 clq533: x[12] + x[98] <= 1
 clq534: x[13] + x[69] <= 1
 clq535: x[17] + x[103] <= 1
 clq536: x[19] + x[74] + x[104] <= 1
 clq537: x[20] + x[41] + x[90] <= 1
 clq538: x[13] + x[21] + x[63] <= 1
 clq539: x[22] + x[58] + x[60] <= 1
 clq540: x[23] + x[49] + x[78] <= 1
 clq541: x[25] + x[48] <= 1
 clq542: x[23] + x[26] + x[113] <= 1
 clq543: x[18] + x[28] + x[89] <= 1
 clq544: x[31] + x[112] <= 1
 clq545: x[40] + x[45] <= 1
 clq546: x[2] + x[42] + x[102] <= 1
 clq547: x[43] + x[99] <= 1
 clq548: x[54] + x[71] + x[84] <= 1
 clq549: x[55] + x[106] <= 1
 clq550: x[56] + x[83] <= 1
 clq551: x[38] + x[59] <= 1
 clq552: x[62] + x[109] <= 1
 clq553: x[64] + x[80] + x[117] <= 1
 clq554: x[76] + x[81] <= 1
 clq555: x[8] + x[11] + x[82] <= 1
 clq556: x[85] + x[97] <= 1
 clq557: x[70] + x[91] <= 1
 clq558: x[93] + x[105] <= 1
 clq559: x[5] + x[88] + x[101] <= 1
 clq560: x[67] + x[116] <= 1
 clq561: x[120] + x[121] <= 1
 clq562: x[37] + x[113] + x[122] <= 1
 clq563: x[72] + x[123] <= 1
 clq564: x[3] + x[30] + x[114] <= 1
 clq565: x[6] + x[21] + x[98] <= 1
 clq566: x[9] + x[59] <= 1
 clq567: x[12] + x[33] <= 1
 clq568: x[16] + x[17] <= 1
 clq569: x[24] + x[55] <= 1
 clq570: x[25] + x[86] <= 1
 clq571: x[17] + x[29] + x[69] <= 1
 clq572: x[31] + x[87] <= 1
 clq573: x[32] + x[47] + x[105] <= 1
 clq574: x[35] + x[106] <= 1
 clq575: x[39] + x[68] <= 1
 clq576: x[40] + x[77] <= 1
 clq577: x[43] + x[45] <= 1
 clq578: x[46] + x[68] + x[114] <= 1
 clq579: x[34] + x[48] <= 1
 clq580: x[51] + x[99] <= 1
 clq581: x[53] + x[121] <= 1
 clq582: x[56] + x[119] <= 1
 clq583: x[57] + x[103] <= 1
 clq584: x[61] + x[123] <= 1
 clq585: x[62] + x[75] <= 1
 clq586: x[65] + x[81] <= 1
 clq587: x[76] + x[106] + x[112] <= 1
 clq588: x[83] + x[109] <= 1
 clq589: x[36] + x[63] + x[85] <= 1
 clq590: x[91] + x[107] + x[124] <= 1
 clq591: x[92] + x[101] <= 1
 clq592: x[65] + x[93] <= 1
 clq593: x[94] + x[111] <= 1
 clq594: x[96] + x[110] <= 1
 clq595: x[35] + x[67] + x[115] <= 1
 clq596: x[10] + x[109] + x[116] <= 1
 clq597: x[15] + x[77] + x[120] <= 1
 clq598: x[43] + x[125] <= 1
 clq599: x[1] + x[82] <= 1
 clq600: x[4] + x[14] <= 1
 clq601: x[7] + x[50] + x[61] <= 1
 clq602: x[9] + x[49] <= 1
 clq603: x[12] + x[39] <= 1
 clq604: x[16] + x[83] + x[87] <= 1
 clq605: x[19] + x[84] <= 1
 clq606: x[20] + x[45] + x[56] <= 1
 clq607: x[22] + x[25] + x[104] <= 1
 clq608: x[24] + x[62] <= 1
 clq609: x[26] + x[66] + x[94] <= 1
 clq610: x[27] + x[103] <= 1
 clq611: x[28] + x[97] <= 1
 clq612: x[31] + x[86] <= 1
 clq613: x[33] + x[41] + x[105] <= 1
 clq614: x[38] + x[45] + x[111] <= 1
 clq615: x[40] + x[63] + x[110] <= 1
 clq616: x[42] + x[115] + x[117] <= 1
 clq617: x[48] + x[52] <= 1
 clq618: x[51] + x[74] <= 1
 clq619: x[53] + x[59] + x[70] <= 1
 clq620: x[54] + x[102] <= 1
 clq621: x[55] + x[93] <= 1
 clq622: x[57] + x[90] <= 1
 clq623: x[58] + x[64] <= 1
 clq624: x[60] + x[89] <= 1
 clq625: x[2] + x[72] <= 1
 clq626: x[41] + x[75] + x[76] <= 1
 clq627: x[78] + x[121] <= 1
 clq628: x[81] + x[122] <= 1
 clq629: x[92] + x[123] <= 1
 clq630: x[1] + x[95] + x[124] <= 1
 clq631: x[5] + x[96] <= 1
 clq632: x[34] + x[99] <= 1
 clq633: x[102] + x[119] <= 1
 clq634: x[6] + x[125] <= 1
 clq635: x[3] + x[85] <= 1
 clq636: x[4] + x[43] <= 1
 clq637: x[8] + x[99] <= 1
 clq638: x[9] + x[69] <= 1
 clq639: x[11] + x[48] <= 1
 clq640: x[12] + x[46] <= 1
 clq641: x[13] + x[121] <= 1
 clq642: x[14] + x[31] + x[98] <= 1
 clq643: x[18] + x[84] <= 1
 clq644: x[19] + x[39] <= 1
 clq645: x[24] + x[80] + x[88] <= 1
 clq646: x[27] + x[73] <= 1
 clq647: x[28] + x[86] <= 1
 clq648: x[29] + x[58] <= 1
 clq649: x[2] + x[30] + x[37] <= 1
 clq650: x[32] + x[101] <= 1
 clq651: x[21] + x[44] + x[65] <= 1
 clq652: x[47] + x[103] <= 1
 clq653: x[49] + x[52] <= 1
 clq654: x[51] + x[81] <= 1
 clq655: x[54] + x[122] <= 1
 clq656: x[55] + x[107] <= 1
 clq657: x[57] + x[93] <= 1
 clq658: x[53] + x[60] + x[82] <= 1
 clq659: x[62] + x[91] <= 1
 clq660: x[64] + x[96] <= 1
 clq661: x[72] + x[112] <= 1
 clq662: x[74] + x[78] <= 1
 clq663: x[48] + x[79] <= 1
 clq664: x[38] + x[89] + x[100] <= 1
 clq665: x[90] + x[123] <= 1
 clq666: x[34] + x[92] <= 1
 clq667: x[35] + x[97] <= 1
 clq668: x[73] + x[101] + x[108] <= 1
 clq669: x[36] + x[116] <= 1
 clq670: x[3] + x[32] + x[118] <= 1
 clq671: x[23] + x[103] + x[119] <= 1
 clq672: x[68] + x[120] <= 1
 clq673: x[5] + x[20] + x[125] <= 1
 clq674: x[4] + x[16] <= 1
 clq675: x[6] + x[46] <= 1
 clq676: x[7] + x[43] <= 1
 clq677: x[8] + x[78] + x[90] <= 1
 clq678: x[9] + x[57] <= 1
 clq679: x[10] + x[97] <= 1
 clq680: x[11] + x[67] <= 1
 clq681: x[12] + x[51] <= 1
 clq682: x[13] + x[83] + x[93] <= 1
 clq683: x[15] + x[75] <= 1
 clq684: x[17] + x[74] <= 1
 clq685: x[18] + x[50] <= 1
 clq686: x[19] + x[107] <= 1
 clq687: x[22] + x[116] <= 1
 clq688: x[25] + x[55] <= 1
 clq689: x[26] + x[46] <= 1
 clq690: x[27] + x[71] <= 1
 clq691: x[28] + x[104] <= 1
 clq692: x[29] + x[84] <= 1
 clq693: x[33] + x[42] + x[95] <= 1
 clq694: x[39] + x[113] <= 1
 clq695: x[40] + x[49] <= 1
 clq696: x[47] + x[62] <= 1
 clq697: x[52] + x[109] <= 1
 clq698: x[15] + x[54] + x[110] <= 1
 clq699: x[56] + x[121] <= 1
 clq700: x[34] + x[58] <= 1
 clq701: x[59] + x[87] <= 1
 clq702: x[61] + x[102] <= 1
 clq703: x[48] + x[64] + x[69] <= 1
 clq704: x[66] + x[99] <= 1
 clq705: x[70] + x[122] <= 1
 clq706: x[72] + x[77] <= 1
 clq707: x[79] + x[86] <= 1
 clq708: x[81] + x[85] <= 1
 clq709: x[72] + x[91] <= 1
 clq710: x[68] + x[92] <= 1
 clq711: x[54] + x[94] + x[117] <= 1
 clq712: x[37] + x[96] <= 1
 clq713: x[66] + x[106] <= 1
 clq714: x[111] + x[120] <= 1
 clq715: x[97] + x[112] <= 1
 clq716: x[80] + x[123] <= 1
 clq717: x[1] + x[25] + x[30] <= 1
 clq718: x[4] + x[105] <= 1
 clq719: x[6] + x[18] <= 1
 clq720: x[7] + x[82] <= 1
 clq721: x[9] + x[108] <= 1
 clq722: x[10] + x[40] <= 1
 clq723: x[11] + x[43] <= 1
 clq724: x[12] + x[36] <= 1
 clq725: x[14] + x[44] <= 1
 clq726: x[16] + x[120] <= 1
 clq727: x[17] + x[35] <= 1
 clq728: x[19] + x[49] <= 1
 clq729: x[22] + x[65] <= 1
 clq730: x[24] + x[104] <= 1
 clq731: x[26] + x[119] <= 1
 clq732: x[27] + x[109] + x[121] <= 1
 clq733: x[28] + x[75] <= 1
 clq734: x[29] + x[91] <= 1
 clq735: x[31] + x[88] <= 1
 clq736: x[39] + x[56] <= 1
 clq737: x[47] + x[55] <= 1
 clq738: x[50] + x[122] <= 1
 clq739: x[51] + x[89] <= 1
 clq740: x[52] + x[74] + x[91] <= 1
 clq741: x[57] + x[61] <= 1
 clq742: x[58] + x[76] <= 1
 clq743: x[12] + x[59] + x[125] <= 1
 clq744: x[60] + x[111] <= 1
 clq745: x[2] + x[62] <= 1
 clq746: x[67] + x[99] <= 1
 clq747: x[70] + x[96] <= 1
 clq748: x[71] + x[114] <= 1
 clq749: x[77] + x[115] <= 1
 clq750: x[79] + x[98] <= 1
 clq751: x[81] + x[107] + x[108] <= 1
 clq752: x[84] + x[97] <= 1
 clq753: x[85] + x[87] <= 1
 clq754: x[86] + x[102] <= 1
 clq755: x[92] + x[102] <= 1
 clq756: x[33] + x[106] <= 1
 clq757: x[66] + x[112] <= 1
 clq758: x[113] + x[116] <= 1
 clq759: x[118] + x[124] <= 1
 clq760: x[38] + x[123] <= 1
 clq761: x[3] + x[34] <= 1
 clq762: x[4] + x[18] <= 1
 clq763: x[5] + x[41] <= 1
 clq764: x[6] + x[58] <= 1
 clq765: x[7] + x[100] <= 1
 clq766: x[8] + x[105] <= 1
 clq767: x[9] + x[122] <= 1
 clq768: x[10] + x[19] <= 1
 clq769: x[11] + x[86] <= 1
 clq770: x[13] + x[115] <= 1
 clq771: x[14] + x[90] <= 1
 clq772: x[16] + x[26] <= 1
 clq773: x[17] + x[84] <= 1
 clq774: x[20] + x[69] <= 1
 clq775: x[21] + x[75] <= 1
 clq776: x[22] + x[73] <= 1
 clq777: x[23] + x[65] <= 1
 clq778: x[24] + x[87] <= 1
 clq779: x[28] + x[29] <= 1
 clq780: x[31] + x[36] <= 1
 clq781: x[32] + x[94] <= 1
 clq782: x[35] + x[53] <= 1
 clq783: x[37] + x[83] <= 1
 clq784: x[39] + x[89] <= 1
 clq785: x[40] + x[51] <= 1
 clq786: x[42] + x[62] <= 1
 clq787: x[43] + x[57] <= 1
 clq788: x[44] + x[112] + x[117] <= 1
 clq789: x[45] + x[67] <= 1
 clq790: x[46] + x[106] <= 1
 clq791: x[47] + x[78] <= 1
 clq792: x[49] + x[68] <= 1
 clq793: x[50] + x[92] <= 1
 clq794: x[18] + x[55] <= 1
 clq795: x[56] + x[95] <= 1
 clq796: x[60] + x[93] <= 1
 clq797: x[61] + x[98] <= 1
 clq798: x[63] + x[81] <= 1
 clq799: x[64] + x[104] <= 1
 clq800: x[70] + x[99] <= 1
 clq801: x[71] + x[85] <= 1
 clq802: x[72] + x[124] <= 1
 clq803: x[76] + x[118] <= 1
 clq804: x[17] + x[77] <= 1
 clq805: x[79] + x[113] <= 1
 clq806: x[80] + x[119] <= 1
 clq807: x[82] + x[110] <= 1
 clq808: x[88] + x[106] <= 1
 clq809: x[96] + x[103] <= 1
 clq810: x[101] + x[111] <= 1
 clq811: x[114] + x[123] <= 1
 clq812: x[13] + x[116] <= 1
 clq813: x[65] + x[120] <= 1
 clq814: x[2] + x[49] <= 1
 clq815: x[1] + x[57] <= 1
 clq816: x[3] + x[25] <= 1
 clq817: x[4] + x[51] <= 1
 clq818: x[5] + x[66] <= 1
 clq819: x[6] + x[116] <= 1
 clq820: x[7] + x[118] <= 1
 clq821: x[8] + x[29] <= 1
 clq822: x[9] + x[27] <= 1
 clq823: x[10] + x[41] <= 1
 clq824: x[11] + x[58] <= 1
 clq825: x[14] + x[125] <= 1
 clq826: x[15] + x[115] <= 1
 clq827: x[16] + x[21] <= 1
 clq828: x[19] + x[26] <= 1
 clq829: x[20] + x[110] + x[120] <= 1
 clq830: x[22] + x[98] <= 1
 clq831: x[23] + x[97] <= 1
 clq832: x[9] + x[24] <= 1
 clq833: x[28] + x[34] <= 1
 clq834: x[30] + x[76] <= 1
 clq835: x[31] + x[73] <= 1
 clq836: x[32] + x[109] <= 1
 clq837: x[33] + x[52] <= 1
 clq838: x[35] + x[62] <= 1
 clq839: x[36] + x[99] <= 1
 clq840: x[37] + x[93] <= 1
 clq841: x[38] + x[86] <= 1
 clq842: x[39] + x[43] <= 1
 clq843: x[40] + x[100] <= 1
 clq844: x[42] + x[55] <= 1
 clq845: x[45] + x[103] <= 1
 clq846: x[46] + x[64] <= 1
 clq847: x[47] + x[100] <= 1
 clq848: x[48] + x[60] <= 1
 clq849: x[50] + x[59] <= 1
 clq850: x[53] + x[68] <= 1
 clq851: x[34] + x[56] <= 1
 clq852: x[61] + x[67] <= 1
 clq853: x[63] + x[95] <= 1
 clq854: x[69] + x[90] <= 1
 clq855: x[70] + x[88] <= 1
 clq856: x[71] + x[125] <= 1
 clq857: x[72] + x[105] <= 1
 clq858: x[74] + x[113] <= 1
 clq859: x[75] + x[111] <= 1
 clq860: x[77] + x[122] <= 1
 clq861: x[78] + x[107] <= 1
 clq862: x[79] + x[80] <= 1
 clq863: x[74] + x[82] <= 1
 clq864: x[83] + x[114] <= 1
 clq865: x[84] + x[89] <= 1
 clq866: x[67] + x[85] <= 1
 clq867: x[10] + x[87] <= 1
 clq868: x[19] + x[92] <= 1
 clq869: x[94] + x[107] <= 1
 clq870: x[29] + x[96] <= 1
 clq871: x[81] + x[101] <= 1
 clq872: x[65] + x[102] <= 1
 clq873: x[104] + x[121] <= 1
 clq874: x[41] + x[119] <= 1
 clq875: x[42] + x[123] <= 1
 clq876: x[3] + x[124] <= 1
 clq877: x[2] + x[82] <= 1
 clq878: x[1] + x[21] <= 1
 clq879: x[4] + x[52] <= 1
 clq880: x[5] + x[13] <= 1
 clq881: x[6] + x[85] <= 1
 clq882: x[7] + x[18] <= 1
 clq883: x[8] + x[116] <= 1
 clq884: x[11] + x[119] <= 1
 clq885: x[12] + x[45] <= 1
 clq886: x[14] + x[109] <= 1
 clq887: x[15] + x[124] <= 1
 clq888: x[16] + x[58] <= 1
 clq889: x[17] + x[68] + x[90] <= 1
 clq890: x[22] + x[28] <= 1
 clq891: x[23] + x[66] <= 1
 clq892: x[19] + x[24] <= 1
 clq893: x[25] + x[26] <= 1
 clq894: x[27] + x[113] <= 1
 clq895: x[30] + x[70] <= 1
 clq896: x[18] + x[31] <= 1
 clq897: x[1] + x[32] <= 1
 clq898: x[33] + x[117] <= 1
 clq899: x[35] + x[73] <= 1
 clq900: x[36] + x[69] <= 1
 clq901: x[37] + x[71] <= 1
 clq902: x[38] + x[57] <= 1
 clq903: x[39] + x[48] <= 1
 clq904: x[40] + x[94] <= 1
 clq905: x[43] + x[97] <= 1
 clq906: x[44] + x[56] <= 1
 clq907: x[46] + x[86] <= 1
 clq908: x[47] + x[108] <= 1
 clq909: x[49] + x[98] <= 1
 clq910: x[50] + x[75] <= 1
 clq911: x[51] + x[64] <= 1
 clq912: x[53] + x[87] <= 1
 clq913: x[54] + x[121] <= 1
 clq914: x[55] + x[115] <= 1
 clq915: x[59] + x[74] <= 1
 clq916: x[10] + x[60] <= 1
 clq917: x[61] + x[106] <= 1
 clq918: x[62] + x[122] <= 1
 clq919: x[26] + x[63] <= 1
 clq920: x[72] + x[83] <= 1
 clq921: x[76] + x[92] <= 1
 clq922: x[33] + x[77] <= 1
 clq923: x[78] + x[111] <= 1
 clq924: x[65] + x[79] <= 1
 clq925: x[76] + x[80] <= 1
 clq926: x[81] + x[84] <= 1
 clq927: x[11] + x[88] <= 1
 clq928: x[89] + x[101] <= 1
 clq929: x[91] + x[118] <= 1
 clq930: x[93] + x[97] <= 1
 clq931: x[35] + x[95] <= 1
 clq932: x[9] + x[96] <= 1
 clq933: x[73] + x[99] <= 1
 clq934: x[102] + x[114] <= 1
 clq935: x[36] + x[103] <= 1
 clq936: x[104] + x[119] <= 1
 clq937: x[105] + x[113] <= 1
 clq938: x[4] + x[112] <= 1
 clq939: x[115] + x[123] <= 1
 clq940: x[2] + x[70] <= 1
 clq941: x[3] + x[42] <= 1
 clq942: x[5] + x[62] <= 1
 clq943: x[6] + x[80] <= 1
 clq944: x[7] + x[24] <= 1
 clq945: x[8] + x[61] <= 1
 clq946: x[12] + x[63] <= 1
 clq947: x[13] + x[25] <= 1
 clq948: x[14] + x[46] <= 1
 clq949: x[15] + x[30] <= 1
 clq950: x[16] + x[53] <= 1
 clq951: x[20] + x[47] <= 1
 clq952: x[21] + x[79] <= 1
 clq953: x[22] + x[96] <= 1
 clq954: x[23] + x[94] <= 1
 clq955: x[27] + x[84] <= 1
 clq956: x[28] + x[59] <= 1
 clq957: x[29] + x[32] <= 1
 clq958: x[31] + x[58] <= 1
 clq959: x[34] + x[55] <= 1
 clq960: x[37] + x[88] <= 1
 clq961: x[38] + x[71] <= 1
 clq962: x[39] + x[117] <= 1
 clq963: x[40] + x[95] <= 1
 clq964: x[41] + x[50] <= 1
 clq965: x[43] + x[114] <= 1
 clq966: x[44] + x[82] <= 1
 clq967: x[45] + x[93] <= 1
 clq968: x[48] + x[77] <= 1
 clq969: x[49] + x[125] <= 1
 clq970: x[51] + x[56] <= 1
 clq971: x[52] + x[122] <= 1
 clq972: x[54] + x[85] <= 1
 clq973: x[57] + x[100] <= 1
 clq974: x[60] + x[109] <= 1
 clq975: x[64] + x[83] <= 1
 clq976: x[66] + x[107] <= 1
 clq977: x[67] + x[72] <= 1
 clq978: x[69] + x[112] <= 1
 clq979: x[75] + x[105] <= 1
 clq980: x[78] + x[92] <= 1
 clq981: x[86] + x[91] <= 1
 clq982: x[87] + x[116] <= 1
 clq983: x[89] + x[102] <= 1
 clq984: x[98] + x[121] <= 1
 clq985: x[99] + x[124] <= 1
 clq986: x[101] + x[110] <= 1
 clq987: x[103] + x[118] <= 1
 clq988: x[104] + x[111] <= 1
 clq989: x[106] + x[108] <= 1
 clq990: x[120] + x[123] <= 1
Bounds
Binaries
 x[2] x[1] x[3] x[4] x[5] x[6] x[7] x[8] x[9] x[10] x[11] x[12] x[13] x[14]
 x[15] x[16] x[17] x[18] x[19] x[20] x[21] x[22] x[23] x[24] x[25] x[26]
 x[27] x[28] x[29] x[30] x[31] x[32] x[33] x[34] x[35] x[36] x[37] x[38]
 x[39] x[40] x[41] x[42] x[43] x[44] x[45] x[46] x[47] x[48] x[49] x[50]
 x[51] x[52] x[53] x[54] x[55] x[56] x[57] x[58] x[59] x[60] x[61] x[62]
 x[63] x[64] x[65] x[66] x[67] x[68] x[69] x[70] x[71] x[72] x[73] x[74]
 x[75] x[76] x[77] x[78] x[79] x[80] x[81] x[82] x[83] x[84] x[85] x[86]
 x[87] x[88] x[89] x[90] x[91] x[92] x[93] x[94] x[95] x[96] x[97] x[98]
 x[99] x[100] x[101] x[102] x[103] x[104] x[105] x[106] x[107] x[108]
 x[109] x[110] x[111] x[112] x[113] x[114] x[115] x[116] x[117] x[118]
 x[119] x[120] x[121] x[122] x[123] x[124] x[125]
End
